750
750 750
1 600 691
2 600 62
3 599 551
4 596 527
5 596 690
6 595 802
7 594 381
8 594 507
9 593 646
10 592 944
11 592 753
12 592 890
13 591 578
14 590 495
15 589 967
16 589 383
17 589 605
18 589 505
19 588 232
20 588 359
21 588 3
22 588 698
23 587 391
24 586 175
25 585 338
26 585 709
27 585 645
28 584 983
29 583 185
30 583 557
31 582 997
32 582 191
33 582 582
34 582 92
35 581 907
36 581 616
37 581 56
38 579 519
39 578 835
40 577 47
41 577 822
42 577 444
43 576 261
44 574 905
45 574 250
46 574 206
47 573 513
48 572 264
49 572 662
50 571 978
51 571 7
52 571 956
53 571 220
54 571 870
55 570 322
56 570 968
57 569 276
58 569 816
59 569 159
60 568 388
61 568 489
62 568 266
63 568 713
64 566 81
65 564 601
66 564 281
67 562 802
68 561 670
69 561 762
70 560 13
71 559 799
72 558 517
73 557 788
74 557 616
75 557 929
76 556 773
77 556 475
78 556 737
79 555 126
80 555 518
81 555 639
82 554 11
83 554 74
84 553 348
85 553 919
86 552 206
87 552 430
88 550 329
89 550 887
90 549 660
91 549 802
92 548 14
93 546 152
94 546 87
95 546 361
96 545 520
97 542 840
98 542 552
99 541 637
100 541 619
101 540 722
102 540 832
103 540 914
104 540 209
105 538 128
106 538 590
107 537 346
108 536 935
109 536 986
110 536 710
111 534 459
112 534 734
113 534 851
114 533 715
115 532 0
116 531 833
117 530 789
118 530 7
119 530 854
120 530 67
121 530 140
122 529 649
123 529 771
124 529 730
125 528 730
126 528 235
127 528 476
128 528 880
129 527 373
130 527 140
131 526 133
132 525 933
133 524 908
134 523 891
135 520 726
136 520 633
137 519 238
138 517 281
139 516 32
140 516 759
141 516 376
142 516 462
143 515 683
144 513 700
145 512 59
146 512 415
147 512 904
148 511 630
149 511 366
150 510 819
151 510 327
152 509 265
153 509 308
154 507 612
155 507 150
156 507 909
157 507 511
158 506 182
159 506 574
160 505 320
161 504 414
162 503 848
163 503 450
164 502 274
165 501 127
166 500 66
167 500 999
168 499 992
169 499 563
170 499 594
171 498 598
172 498 54
173 498 544
174 497 843
175 496 484
176 496 641
177 496 857
178 495 72
179 495 514
180 493 106
181 493 850
182 492 48
183 492 357
184 491 979
185 490 233
186 490 398
187 489 973
188 489 200
189 488 296
190 488 308
191 488 764
192 488 353
193 488 502
194 486 545
195 486 185
196 486 401
197 486 582
198 484 927
199 484 414
200 484 598
201 483 355
202 483 741
203 482 942
204 481 461
205 480 567
206 479 61
207 478 937
208 477 546
209 475 438
210 474 215
211 474 919
212 474 171
213 472 305
214 472 564
215 471 441
216 470 708
217 470 693
218 469 983
219 468 90
220 467 350
221 467 79
222 466 353
223 466 182
224 465 998
225 463 523
226 463 403
227 462 765
228 460 534
229 460 347
230 460 449
231 459 930
232 459 75
233 459 921
234 458 954
235 458 427
236 458 399
237 457 506
238 455 731
239 455 655
240 455 896
241 454 343
242 454 827
243 454 748
244 453 140
245 453 203
246 453 743
247 452 295
248 452 55
249 452 310
250 451 267
251 451 168
252 450 19
253 450 724
254 449 18
255 448 141
256 448 422
257 448 276
258 447 813
259 447 936
260 446 358
261 445 452
262 445 204
263 443 477
264 442 327
265 442 60
266 441 178
267 440 321
268 440 462
269 438 368
270 438 330
271 438 319
272 438 289
273 438 397
274 438 707
275 438 402
276 437 442
277 437 795
278 437 824
279 436 903
280 436 389
281 436 41
282 436 52
283 435 436
284 435 46
285 434 532
286 433 735
287 433 866
288 432 25
289 432 528
290 431 951
291 431 1
292 430 892
293 429 493
294 428 490
295 427 780
296 426 384
297 425 819
298 425 637
299 424 310
300 424 271
301 423 112
302 423 150
303 422 944
304 421 382
305 421 491
306 420 258
307 419 779
308 418 432
309 418 955
310 417 870
311 417 244
312 417 674
313 415 103
314 415 114
315 414 700
316 414 227
317 413 202
318 413 866
319 412 88
320 411 509
321 411 817
322 409 34
323 409 705
324 409 37
325 408 123
326 407 573
327 407 402
328 407 626
329 406 987
330 406 498
331 406 55
332 405 961
333 405 945
334 405 351
335 405 979
336 405 583
337 405 237
338 403 863
339 403 434
340 402 11
341 402 305
342 402 623
343 401 989
344 401 609
345 400 31
346 398 287
347 397 484
348 396 26
349 396 871
350 396 847
351 395 864
352 394 294
353 393 64
354 393 588
355 392 81
356 392 945
357 392 761
358 392 487
359 391 506
360 391 408
361 390 256
362 390 648
363 390 51
364 390 45
365 389 61
366 388 690
367 388 3
368 387 771
369 387 15
370 386 766
371 386 202
372 385 219
373 384 357
374 383 928
375 383 400
376 383 399
377 383 113
378 382 679
379 381 708
380 381 282
381 381 114
382 380 234
383 379 466
384 379 960
385 379 645
386 376 990
387 376 119
388 375 22
389 375 809
390 375 662
391 375 21
392 375 966
393 374 803
394 374 149
395 374 849
396 373 347
397 372 194
398 371 501
399 371 73
400 370 952
401 369 677
402 368 148
403 368 98
404 368 781
405 367 481
406 364 869
407 364 84
408 364 229
409 364 356
410 363 866
411 363 788
412 362 511
413 360 330
414 360 196
415 360 103
416 358 886
417 357 569
418 357 448
419 356 859
420 356 183
421 356 864
422 355 181
423 355 46
424 353 684
425 353 652
426 351 867
427 351 868
428 351 578
429 350 703
430 350 975
431 349 103
432 349 429
433 348 850
434 348 838
435 348 850
436 347 26
437 347 156
438 346 229
439 346 738
440 345 359
441 344 926
442 344 420
443 344 880
444 343 455
445 342 421
446 340 523
447 339 812
448 338 423
449 337 161
450 336 673
451 336 310
452 336 612
453 335 753
454 335 417
455 335 612
456 335 59
457 335 325
458 333 366
459 333 117
460 332 209
461 332 35
462 332 646
463 331 865
464 330 71
465 329 289
466 328 133
467 327 457
468 327 944
469 325 554
470 325 512
471 324 320
472 324 622
473 323 824
474 322 110
475 322 715
476 322 853
477 322 612
478 322 255
479 321 682
480 321 638
481 320 281
482 320 305
483 319 637
484 318 851
485 318 859
486 318 761
487 318 958
488 318 644
489 317 975
490 316 832
491 316 122
492 313 601
493 313 678
494 313 614
495 313 905
496 312 325
497 312 226
498 312 554
499 312 210
500 311 594
501 311 455
502 310 103
503 310 41
504 310 625
505 306 810
506 306 562
507 306 796
508 305 254
509 305 582
510 305 509
511 303 0
512 302 667
513 301 356
514 301 676
515 300 518
516 299 631
517 299 750
518 299 133
519 298 603
520 297 926
521 297 539
522 296 898
523 295 819
524 295 572
525 294 80
526 293 939
527 293 51
528 292 472
529 291 812
530 290 395
531 290 811
532 288 559
533 287 221
534 287 660
535 285 180
536 285 465
537 282 786
538 281 26
539 281 661
540 280 611
541 280 530
542 280 58
543 280 990
544 279 212
545 279 620
546 278 44
547 277 611
548 276 85
549 276 717
550 275 176
551 275 645
552 275 203
553 274 292
554 274 355
555 273 886
556 272 804
557 271 907
558 271 857
559 269 452
560 268 672
561 268 757
562 267 851
563 267 41
564 266 903
565 266 539
566 266 293
567 266 489
568 266 634
569 266 132
570 264 629
571 264 70
572 264 823
573 264 405
574 263 407
575 263 275
576 263 959
577 260 623
578 259 93
579 259 809
580 259 998
581 259 262
582 258 263
583 257 680
584 257 314
585 256 980
586 255 786
587 254 914
588 253 137
589 253 712
590 252 289
591 252 441
592 250 928
593 249 241
594 249 36
595 248 875
596 247 147
597 246 151
598 245 817
599 245 625
600 244 433
601 242 482
602 241 462
603 241 148
604 241 422
605 240 153
606 240 779
607 240 537
608 235 568
609 235 969
610 235 322
611 235 573
612 235 680
613 234 114
614 234 88
615 233 852
616 233 211
617 233 893
618 233 58
619 232 672
620 231 425
621 231 349
622 230 542
623 228 903
624 228 253
625 227 261
626 226 212
627 225 739
628 225 88
629 225 239
630 225 691
631 224 792
632 223 822
633 221 563
634 221 194
635 220 805
636 220 559
637 218 762
638 216 21
639 215 474
640 215 62
641 215 640
642 214 623
643 212 529
644 212 862
645 212 497
646 212 67
647 211 549
648 211 937
649 211 777
650 210 756
651 209 789
652 208 738
653 208 234
654 207 560
655 206 463
656 206 550
657 206 83
658 204 139
659 203 124
660 203 777
661 202 687
662 201 906
663 198 196
664 198 612
665 198 326
666 198 189
667 197 208
668 197 657
669 197 627
670 194 654
671 194 458
672 191 896
673 191 505
674 191 419
675 191 589
676 189 337
677 188 36
678 188 684
679 188 210
680 188 488
681 187 704
682 187 455
683 186 617
684 185 132
685 185 784
686 181 609
687 181 811
688 181 59
689 180 162
690 179 155
691 179 585
692 179 700
693 177 317
694 177 933
695 176 832
696 176 765
697 176 180
698 175 824
699 175 702
700 174 511
701 173 921
702 173 237
703 172 267
704 171 826
705 171 847
706 169 779
707 169 504
708 168 238
709 168 673
710 167 457
711 167 745
712 167 972
713 166 22
714 165 697
715 165 521
716 165 766
717 164 165
718 164 944
719 164 491
720 164 97
721 163 390
722 162 698
723 162 450
724 162 210
725 161 716
726 160 494
727 160 251
728 159 818
729 159 759
730 159 185
731 158 297
732 158 968
733 158 839
734 158 589
735 158 971
736 157 165
737 157 868
738 156 831
739 156 283
740 155 908
741 154 323
742 154 382
743 154 124
744 152 309
745 152 927
746 152 666
747 152 829
748 151 330
749 151 732
750 150 457
